100
32
1
6
1
4
8
2
1
11
6
9
24
32
23
23
5
14
1
19
13
17
6
17
8
20
22
3
17
21
32
29
12
9
1
3
28
8
19
13
19
26
18
8
17
9
22
28
18
20
31
14
20
26
3
24
8
4
4
4
4
6
5
6
3
20
24
25
6
1
5
8
27
22
12
9
18
6
23
8
22
11
2
11
4
4
3
14
15
15
14
8
14
9
11
12
6
15
1
4
3
13